\ENCODING=ISO-8859-1
\Problem name: IloCplex

Minimize
 OBJ: xI#272
Subject To
 c1:   y(1,1)#0 + y(1,2)#1  = 1
 c2:   y(2,1)#2  = 1
 c3:   y(3,1)#3 + y(3,2)#4  = 1
 c4:   y(4,1)#5  = 1
 c5:   y(5,1)#6  = 1
 c6:   x(1,1)#32  = 0
 c7:   - y(1,1)#0 - y(1,2)#1 + x(1,2)#33  = 0
 c8:   x(1,3)#34  = 0
 c9:   - y(1,1)#0 + x(1,4)#35  = 0
 c10:  - y(1,2)#1 + x(1,5)#36  = 0
 c11:  - y(1,1)#0 + x(1,6)#37  = 0
 c12:  x(1,7)#38  = 0
 c13:  - y(1,1)#0 + x(1,8)#39  = 0
 c14:  - y(2,1)#2 + x(2,1)#40  = 0
 c15:  x(2,2)#41  = 0
 c16:  - y(2,1)#2 + x(2,3)#42  = 0
 c17:  - y(2,1)#2 + x(2,4)#43  = 0
 c18:  x(2,5)#44  = 0
 c19:  x(2,6)#45  = 0
 c20:  x(2,7)#46  = 0
 c21:  x(2,8)#47  = 0
 c22:  x(3,1)#48  = 0
 c23:  x(3,2)#49  = 0
 c24:  - y(3,1)#3 - y(3,2)#4 + x(3,3)#50  = 0
 c25:  - y(3,2)#4 + x(3,4)#51  = 0
 c26:  - y(3,1)#3 + x(3,5)#52  = 0
 c27:  - y(3,2)#4 + x(3,6)#53  = 0
 c28:  x(3,7)#54  = 0
 c29:  - y(3,2)#4 + x(3,8)#55  = 0
 c30:  - y(4,1)#5 + x(4,1)#56  = 0
 c31:  - y(4,1)#5 + x(4,2)#57  = 0
 c32:  x(4,3)#58  = 0
 c33:  x(4,4)#59  = 0
 c34:  x(4,5)#60  = 0
 c35:  x(4,6)#61  = 0
 c36:  x(4,7)#62  = 0
 c37:  - y(4,1)#5 + x(4,8)#63  = 0
 c38:  x(5,1)#64  = 0
 c39:  x(5,2)#65  = 0
 c40:  x(5,3)#66  = 0
 c41:  x(5,4)#67  = 0
 c42:  x(5,5)#68  = 0
 c43:  x(5,6)#69  = 0
 c44:  - y(5,1)#6 + x(5,7)#70  = 0
 c45:  x(5,8)#71  = 0
 c46:  x(1,1)#32 + x(1,2)#33 + x(1,3)#34 + x(1,4)#35 + x(1,5)#36 + x(1,6)#37
       + x(1,7)#38 + x(1,8)#39 <= 4
 c47:  x(2,1)#40 + x(2,2)#41 + x(2,3)#42 + x(2,4)#43 + x(2,5)#44 + x(2,6)#45
       + x(2,7)#46 + x(2,8)#47 <= 4
 c48:  x(3,1)#48 + x(3,2)#49 + x(3,3)#50 + x(3,4)#51 + x(3,5)#52 + x(3,6)#53
       + x(3,7)#54 + x(3,8)#55 <= 4
 c49:  x(4,1)#56 + x(4,2)#57 + x(4,3)#58 + x(4,4)#59 + x(4,5)#60 + x(4,6)#61
       + x(4,7)#62 + x(4,8)#63 <= 4
 c50:  x(5,1)#64 + x(5,2)#65 + x(5,3)#66 + x(5,4)#67 + x(5,5)#68 + x(5,6)#69
       + x(5,7)#70 + x(5,8)#71 <= 4
 c51:  z(1,2)#8 + z(1,3)#9 + z(1,4)#10 + z(1,5)#11  = 1
 c52:  z(2,1)#12 + z(2,2)#13 + z(2,3)#14 + z(2,4)#15 + z(2,5)#16  = 1
 c53:  z(3,2)#18 + z(3,3)#19 + z(3,4)#20 + z(3,5)#21  = 1
 c54:  z(4,1)#22 + z(4,2)#23 + z(4,3)#24 + z(4,4)#25 + z(4,5)#26  = 1
 c55:  z(5,3)#29 + z(5,4)#30 + z(5,5)#31  = 1
 c56:  z(1,1)#7 + z(1,2)#8 + x(1,1)#32 - t(1,1,1)#72 <= 1
 c57:  z(1,2)#8 + z(1,3)#9 + x(1,1)#32 - t(1,1,2)#73 <= 1
 c58:  z(1,3)#9 + z(1,4)#10 + x(1,1)#32 - t(1,1,3)#74 <= 1
 c59:  z(1,4)#10 + z(1,5)#11 + x(1,1)#32 - t(1,1,4)#75 <= 1
 c60:  z(1,5)#11 + x(1,1)#32 - t(1,1,5)#76 <= 1
 c61:  z(1,1)#7 + z(1,2)#8 + x(1,2)#33 - t(1,2,1)#77 <= 1
 c62:  z(1,2)#8 + z(1,3)#9 + x(1,2)#33 - t(1,2,2)#78 <= 1
 c63:  z(1,3)#9 + z(1,4)#10 + x(1,2)#33 - t(1,2,3)#79 <= 1
 c64:  z(1,4)#10 + z(1,5)#11 + x(1,2)#33 - t(1,2,4)#80 <= 1
 c65:  z(1,5)#11 + x(1,2)#33 - t(1,2,5)#81 <= 1
 c66:  z(1,1)#7 + z(1,2)#8 + x(1,3)#34 - t(1,3,1)#82 <= 1
 c67:  z(1,2)#8 + z(1,3)#9 + x(1,3)#34 - t(1,3,2)#83 <= 1
 c68:  z(1,3)#9 + z(1,4)#10 + x(1,3)#34 - t(1,3,3)#84 <= 1
 c69:  z(1,4)#10 + z(1,5)#11 + x(1,3)#34 - t(1,3,4)#85 <= 1
 c70:  z(1,5)#11 + x(1,3)#34 - t(1,3,5)#86 <= 1
 c71:  z(1,1)#7 + z(1,2)#8 + x(1,4)#35 - t(1,4,1)#87 <= 1
 c72:  z(1,2)#8 + z(1,3)#9 + x(1,4)#35 - t(1,4,2)#88 <= 1
 c73:  z(1,3)#9 + z(1,4)#10 + x(1,4)#35 - t(1,4,3)#89 <= 1
 c74:  z(1,4)#10 + z(1,5)#11 + x(1,4)#35 - t(1,4,4)#90 <= 1
 c75:  z(1,5)#11 + x(1,4)#35 - t(1,4,5)#91 <= 1
 c76:  z(1,1)#7 + z(1,2)#8 + x(1,5)#36 - t(1,5,1)#92 <= 1
 c77:  z(1,2)#8 + z(1,3)#9 + x(1,5)#36 - t(1,5,2)#93 <= 1
 c78:  z(1,3)#9 + z(1,4)#10 + x(1,5)#36 - t(1,5,3)#94 <= 1
 c79:  z(1,4)#10 + z(1,5)#11 + x(1,5)#36 - t(1,5,4)#95 <= 1
 c80:  z(1,5)#11 + x(1,5)#36 - t(1,5,5)#96 <= 1
 c81:  z(1,1)#7 + z(1,2)#8 + x(1,6)#37 - t(1,6,1)#97 <= 1
 c82:  z(1,2)#8 + z(1,3)#9 + x(1,6)#37 - t(1,6,2)#98 <= 1
 c83:  z(1,3)#9 + z(1,4)#10 + x(1,6)#37 - t(1,6,3)#99 <= 1
 c84:  z(1,4)#10 + z(1,5)#11 + x(1,6)#37 - t(1,6,4)#100 <= 1
 c85:  z(1,5)#11 + x(1,6)#37 - t(1,6,5)#101 <= 1
 c86:  z(1,1)#7 + z(1,2)#8 + x(1,7)#38 - t(1,7,1)#102 <= 1
 c87:  z(1,2)#8 + z(1,3)#9 + x(1,7)#38 - t(1,7,2)#103 <= 1
 c88:  z(1,3)#9 + z(1,4)#10 + x(1,7)#38 - t(1,7,3)#104 <= 1
 c89:  z(1,4)#10 + z(1,5)#11 + x(1,7)#38 - t(1,7,4)#105 <= 1
 c90:  z(1,5)#11 + x(1,7)#38 - t(1,7,5)#106 <= 1
 c91:  z(1,1)#7 + z(1,2)#8 + x(1,8)#39 - t(1,8,1)#107 <= 1
 c92:  z(1,2)#8 + z(1,3)#9 + x(1,8)#39 - t(1,8,2)#108 <= 1
 c93:  z(1,3)#9 + z(1,4)#10 + x(1,8)#39 - t(1,8,3)#109 <= 1
 c94:  z(1,4)#10 + z(1,5)#11 + x(1,8)#39 - t(1,8,4)#110 <= 1
 c95:  z(1,5)#11 + x(1,8)#39 - t(1,8,5)#111 <= 1
 c96:  z(2,1)#12 + x(2,1)#40 - t(2,1,1)#112 <= 1
 c97:  z(2,2)#13 + x(2,1)#40 - t(2,1,2)#113 <= 1
 c98:  z(2,3)#14 + x(2,1)#40 - t(2,1,3)#114 <= 1
 c99:  z(2,4)#15 + x(2,1)#40 - t(2,1,4)#115 <= 1
 c100: z(2,5)#16 + x(2,1)#40 - t(2,1,5)#116 <= 1
 c101: z(2,1)#12 + x(2,2)#41 - t(2,2,1)#117 <= 1
 c102: z(2,2)#13 + x(2,2)#41 - t(2,2,2)#118 <= 1
 c103: z(2,3)#14 + x(2,2)#41 - t(2,2,3)#119 <= 1
 c104: z(2,4)#15 + x(2,2)#41 - t(2,2,4)#120 <= 1
 c105: z(2,5)#16 + x(2,2)#41 - t(2,2,5)#121 <= 1
 c106: z(2,1)#12 + x(2,3)#42 - t(2,3,1)#122 <= 1
 c107: z(2,2)#13 + x(2,3)#42 - t(2,3,2)#123 <= 1
 c108: z(2,3)#14 + x(2,3)#42 - t(2,3,3)#124 <= 1
 c109: z(2,4)#15 + x(2,3)#42 - t(2,3,4)#125 <= 1
 c110: z(2,5)#16 + x(2,3)#42 - t(2,3,5)#126 <= 1
 c111: z(2,1)#12 + x(2,4)#43 - t(2,4,1)#127 <= 1
 c112: z(2,2)#13 + x(2,4)#43 - t(2,4,2)#128 <= 1
 c113: z(2,3)#14 + x(2,4)#43 - t(2,4,3)#129 <= 1
 c114: z(2,4)#15 + x(2,4)#43 - t(2,4,4)#130 <= 1
 c115: z(2,5)#16 + x(2,4)#43 - t(2,4,5)#131 <= 1
 c116: z(2,1)#12 + x(2,5)#44 - t(2,5,1)#132 <= 1
 c117: z(2,2)#13 + x(2,5)#44 - t(2,5,2)#133 <= 1
 c118: z(2,3)#14 + x(2,5)#44 - t(2,5,3)#134 <= 1
 c119: z(2,4)#15 + x(2,5)#44 - t(2,5,4)#135 <= 1
 c120: z(2,5)#16 + x(2,5)#44 - t(2,5,5)#136 <= 1
 c121: z(2,1)#12 + x(2,6)#45 - t(2,6,1)#137 <= 1
 c122: z(2,2)#13 + x(2,6)#45 - t(2,6,2)#138 <= 1
 c123: z(2,3)#14 + x(2,6)#45 - t(2,6,3)#139 <= 1
 c124: z(2,4)#15 + x(2,6)#45 - t(2,6,4)#140 <= 1
 c125: z(2,5)#16 + x(2,6)#45 - t(2,6,5)#141 <= 1
 c126: z(2,1)#12 + x(2,7)#46 - t(2,7,1)#142 <= 1
 c127: z(2,2)#13 + x(2,7)#46 - t(2,7,2)#143 <= 1
 c128: z(2,3)#14 + x(2,7)#46 - t(2,7,3)#144 <= 1
 c129: z(2,4)#15 + x(2,7)#46 - t(2,7,4)#145 <= 1
 c130: z(2,5)#16 + x(2,7)#46 - t(2,7,5)#146 <= 1
 c131: z(2,1)#12 + x(2,8)#47 - t(2,8,1)#147 <= 1
 c132: z(2,2)#13 + x(2,8)#47 - t(2,8,2)#148 <= 1
 c133: z(2,3)#14 + x(2,8)#47 - t(2,8,3)#149 <= 1
 c134: z(2,4)#15 + x(2,8)#47 - t(2,8,4)#150 <= 1
 c135: z(2,5)#16 + x(2,8)#47 - t(2,8,5)#151 <= 1
 c136: z(3,1)#17 + z(3,2)#18 + x(3,1)#48 - t(3,1,1)#152 <= 1
 c137: z(3,2)#18 + z(3,3)#19 + x(3,1)#48 - t(3,1,2)#153 <= 1
 c138: z(3,3)#19 + z(3,4)#20 + x(3,1)#48 - t(3,1,3)#154 <= 1
 c139: z(3,4)#20 + z(3,5)#21 + x(3,1)#48 - t(3,1,4)#155 <= 1
 c140: z(3,5)#21 + x(3,1)#48 - t(3,1,5)#156 <= 1
 c141: z(3,1)#17 + z(3,2)#18 + x(3,2)#49 - t(3,2,1)#157 <= 1
 c142: z(3,2)#18 + z(3,3)#19 + x(3,2)#49 - t(3,2,2)#158 <= 1
 c143: z(3,3)#19 + z(3,4)#20 + x(3,2)#49 - t(3,2,3)#159 <= 1
 c144: z(3,4)#20 + z(3,5)#21 + x(3,2)#49 - t(3,2,4)#160 <= 1
 c145: z(3,5)#21 + x(3,2)#49 - t(3,2,5)#161 <= 1
 c146: z(3,1)#17 + z(3,2)#18 + x(3,3)#50 - t(3,3,1)#162 <= 1
 c147: z(3,2)#18 + z(3,3)#19 + x(3,3)#50 - t(3,3,2)#163 <= 1
 c148: z(3,3)#19 + z(3,4)#20 + x(3,3)#50 - t(3,3,3)#164 <= 1
 c149: z(3,4)#20 + z(3,5)#21 + x(3,3)#50 - t(3,3,4)#165 <= 1
 c150: z(3,5)#21 + x(3,3)#50 - t(3,3,5)#166 <= 1
 c151: z(3,1)#17 + z(3,2)#18 + x(3,4)#51 - t(3,4,1)#167 <= 1
 c152: z(3,2)#18 + z(3,3)#19 + x(3,4)#51 - t(3,4,2)#168 <= 1
 c153: z(3,3)#19 + z(3,4)#20 + x(3,4)#51 - t(3,4,3)#169 <= 1
 c154: z(3,4)#20 + z(3,5)#21 + x(3,4)#51 - t(3,4,4)#170 <= 1
 c155: z(3,5)#21 + x(3,4)#51 - t(3,4,5)#171 <= 1
 c156: z(3,1)#17 + z(3,2)#18 + x(3,5)#52 - t(3,5,1)#172 <= 1
 c157: z(3,2)#18 + z(3,3)#19 + x(3,5)#52 - t(3,5,2)#173 <= 1
 c158: z(3,3)#19 + z(3,4)#20 + x(3,5)#52 - t(3,5,3)#174 <= 1
 c159: z(3,4)#20 + z(3,5)#21 + x(3,5)#52 - t(3,5,4)#175 <= 1
 c160: z(3,5)#21 + x(3,5)#52 - t(3,5,5)#176 <= 1
 c161: z(3,1)#17 + z(3,2)#18 + x(3,6)#53 - t(3,6,1)#177 <= 1
 c162: z(3,2)#18 + z(3,3)#19 + x(3,6)#53 - t(3,6,2)#178 <= 1
 c163: z(3,3)#19 + z(3,4)#20 + x(3,6)#53 - t(3,6,3)#179 <= 1
 c164: z(3,4)#20 + z(3,5)#21 + x(3,6)#53 - t(3,6,4)#180 <= 1
 c165: z(3,5)#21 + x(3,6)#53 - t(3,6,5)#181 <= 1
 c166: z(3,1)#17 + z(3,2)#18 + x(3,7)#54 - t(3,7,1)#182 <= 1
 c167: z(3,2)#18 + z(3,3)#19 + x(3,7)#54 - t(3,7,2)#183 <= 1
 c168: z(3,3)#19 + z(3,4)#20 + x(3,7)#54 - t(3,7,3)#184 <= 1
 c169: z(3,4)#20 + z(3,5)#21 + x(3,7)#54 - t(3,7,4)#185 <= 1
 c170: z(3,5)#21 + x(3,7)#54 - t(3,7,5)#186 <= 1
 c171: z(3,1)#17 + z(3,2)#18 + x(3,8)#55 - t(3,8,1)#187 <= 1
 c172: z(3,2)#18 + z(3,3)#19 + x(3,8)#55 - t(3,8,2)#188 <= 1
 c173: z(3,3)#19 + z(3,4)#20 + x(3,8)#55 - t(3,8,3)#189 <= 1
 c174: z(3,4)#20 + z(3,5)#21 + x(3,8)#55 - t(3,8,4)#190 <= 1
 c175: z(3,5)#21 + x(3,8)#55 - t(3,8,5)#191 <= 1
 c176: z(4,1)#22 + x(4,1)#56 - t(4,1,1)#192 <= 1
 c177: z(4,2)#23 + x(4,1)#56 - t(4,1,2)#193 <= 1
 c178: z(4,3)#24 + x(4,1)#56 - t(4,1,3)#194 <= 1
 c179: z(4,4)#25 + x(4,1)#56 - t(4,1,4)#195 <= 1
 c180: z(4,5)#26 + x(4,1)#56 - t(4,1,5)#196 <= 1
 c181: z(4,1)#22 + x(4,2)#57 - t(4,2,1)#197 <= 1
 c182: z(4,2)#23 + x(4,2)#57 - t(4,2,2)#198 <= 1
 c183: z(4,3)#24 + x(4,2)#57 - t(4,2,3)#199 <= 1
 c184: z(4,4)#25 + x(4,2)#57 - t(4,2,4)#200 <= 1
 c185: z(4,5)#26 + x(4,2)#57 - t(4,2,5)#201 <= 1
 c186: z(4,1)#22 + x(4,3)#58 - t(4,3,1)#202 <= 1
 c187: z(4,2)#23 + x(4,3)#58 - t(4,3,2)#203 <= 1
 c188: z(4,3)#24 + x(4,3)#58 - t(4,3,3)#204 <= 1
 c189: z(4,4)#25 + x(4,3)#58 - t(4,3,4)#205 <= 1
 c190: z(4,5)#26 + x(4,3)#58 - t(4,3,5)#206 <= 1
 c191: z(4,1)#22 + x(4,4)#59 - t(4,4,1)#207 <= 1
 c192: z(4,2)#23 + x(4,4)#59 - t(4,4,2)#208 <= 1
 c193: z(4,3)#24 + x(4,4)#59 - t(4,4,3)#209 <= 1
 c194: z(4,4)#25 + x(4,4)#59 - t(4,4,4)#210 <= 1
 c195: z(4,5)#26 + x(4,4)#59 - t(4,4,5)#211 <= 1
 c196: z(4,1)#22 + x(4,5)#60 - t(4,5,1)#212 <= 1
 c197: z(4,2)#23 + x(4,5)#60 - t(4,5,2)#213 <= 1
 c198: z(4,3)#24 + x(4,5)#60 - t(4,5,3)#214 <= 1
 c199: z(4,4)#25 + x(4,5)#60 - t(4,5,4)#215 <= 1
 c200: z(4,5)#26 + x(4,5)#60 - t(4,5,5)#216 <= 1
 c201: z(4,1)#22 + x(4,6)#61 - t(4,6,1)#217 <= 1
 c202: z(4,2)#23 + x(4,6)#61 - t(4,6,2)#218 <= 1
 c203: z(4,3)#24 + x(4,6)#61 - t(4,6,3)#219 <= 1
 c204: z(4,4)#25 + x(4,6)#61 - t(4,6,4)#220 <= 1
 c205: z(4,5)#26 + x(4,6)#61 - t(4,6,5)#221 <= 1
 c206: z(4,1)#22 + x(4,7)#62 - t(4,7,1)#222 <= 1
 c207: z(4,2)#23 + x(4,7)#62 - t(4,7,2)#223 <= 1
 c208: z(4,3)#24 + x(4,7)#62 - t(4,7,3)#224 <= 1
 c209: z(4,4)#25 + x(4,7)#62 - t(4,7,4)#225 <= 1
 c210: z(4,5)#26 + x(4,7)#62 - t(4,7,5)#226 <= 1
 c211: z(4,1)#22 + x(4,8)#63 - t(4,8,1)#227 <= 1
 c212: z(4,2)#23 + x(4,8)#63 - t(4,8,2)#228 <= 1
 c213: z(4,3)#24 + x(4,8)#63 - t(4,8,3)#229 <= 1
 c214: z(4,4)#25 + x(4,8)#63 - t(4,8,4)#230 <= 1
 c215: z(4,5)#26 + x(4,8)#63 - t(4,8,5)#231 <= 1
 c216: z(5,1)#27 + z(5,2)#28 + z(5,3)#29 + x(5,1)#64 - t(5,1,1)#232 <= 1
 c217: z(5,2)#28 + z(5,3)#29 + z(5,4)#30 + x(5,1)#64 - t(5,1,2)#233 <= 1
 c218: z(5,3)#29 + z(5,4)#30 + z(5,5)#31 + x(5,1)#64 - t(5,1,3)#234 <= 1
 c219: z(5,4)#30 + z(5,5)#31 + x(5,1)#64 - t(5,1,4)#235 <= 1
 c220: z(5,5)#31 + x(5,1)#64 - t(5,1,5)#236 <= 1
 c221: z(5,1)#27 + z(5,2)#28 + z(5,3)#29 + x(5,2)#65 - t(5,2,1)#237 <= 1
 c222: z(5,2)#28 + z(5,3)#29 + z(5,4)#30 + x(5,2)#65 - t(5,2,2)#238 <= 1
 c223: z(5,3)#29 + z(5,4)#30 + z(5,5)#31 + x(5,2)#65 - t(5,2,3)#239 <= 1
 c224: z(5,4)#30 + z(5,5)#31 + x(5,2)#65 - t(5,2,4)#240 <= 1
 c225: z(5,5)#31 + x(5,2)#65 - t(5,2,5)#241 <= 1
 c226: z(5,1)#27 + z(5,2)#28 + z(5,3)#29 + x(5,3)#66 - t(5,3,1)#242 <= 1
 c227: z(5,2)#28 + z(5,3)#29 + z(5,4)#30 + x(5,3)#66 - t(5,3,2)#243 <= 1
 c228: z(5,3)#29 + z(5,4)#30 + z(5,5)#31 + x(5,3)#66 - t(5,3,3)#244 <= 1
 c229: z(5,4)#30 + z(5,5)#31 + x(5,3)#66 - t(5,3,4)#245 <= 1
 c230: z(5,5)#31 + x(5,3)#66 - t(5,3,5)#246 <= 1
 c231: z(5,1)#27 + z(5,2)#28 + z(5,3)#29 + x(5,4)#67 - t(5,4,1)#247 <= 1
 c232: z(5,2)#28 + z(5,3)#29 + z(5,4)#30 + x(5,4)#67 - t(5,4,2)#248 <= 1
 c233: z(5,3)#29 + z(5,4)#30 + z(5,5)#31 + x(5,4)#67 - t(5,4,3)#249 <= 1
 c234: z(5,4)#30 + z(5,5)#31 + x(5,4)#67 - t(5,4,4)#250 <= 1
 c235: z(5,5)#31 + x(5,4)#67 - t(5,4,5)#251 <= 1
 c236: z(5,1)#27 + z(5,2)#28 + z(5,3)#29 + x(5,5)#68 - t(5,5,1)#252 <= 1
 c237: z(5,2)#28 + z(5,3)#29 + z(5,4)#30 + x(5,5)#68 - t(5,5,2)#253 <= 1
 c238: z(5,3)#29 + z(5,4)#30 + z(5,5)#31 + x(5,5)#68 - t(5,5,3)#254 <= 1
 c239: z(5,4)#30 + z(5,5)#31 + x(5,5)#68 - t(5,5,4)#255 <= 1
 c240: z(5,5)#31 + x(5,5)#68 - t(5,5,5)#256 <= 1
 c241: z(5,1)#27 + z(5,2)#28 + z(5,3)#29 + x(5,6)#69 - t(5,6,1)#257 <= 1
 c242: z(5,2)#28 + z(5,3)#29 + z(5,4)#30 + x(5,6)#69 - t(5,6,2)#258 <= 1
 c243: z(5,3)#29 + z(5,4)#30 + z(5,5)#31 + x(5,6)#69 - t(5,6,3)#259 <= 1
 c244: z(5,4)#30 + z(5,5)#31 + x(5,6)#69 - t(5,6,4)#260 <= 1
 c245: z(5,5)#31 + x(5,6)#69 - t(5,6,5)#261 <= 1
 c246: z(5,1)#27 + z(5,2)#28 + z(5,3)#29 + x(5,7)#70 - t(5,7,1)#262 <= 1
 c247: z(5,2)#28 + z(5,3)#29 + z(5,4)#30 + x(5,7)#70 - t(5,7,2)#263 <= 1
 c248: z(5,3)#29 + z(5,4)#30 + z(5,5)#31 + x(5,7)#70 - t(5,7,3)#264 <= 1
 c249: z(5,4)#30 + z(5,5)#31 + x(5,7)#70 - t(5,7,4)#265 <= 1
 c250: z(5,5)#31 + x(5,7)#70 - t(5,7,5)#266 <= 1
 c251: z(5,1)#27 + z(5,2)#28 + z(5,3)#29 + x(5,8)#71 - t(5,8,1)#267 <= 1
 c252: z(5,2)#28 + z(5,3)#29 + z(5,4)#30 + x(5,8)#71 - t(5,8,2)#268 <= 1
 c253: z(5,3)#29 + z(5,4)#30 + z(5,5)#31 + x(5,8)#71 - t(5,8,3)#269 <= 1
 c254: z(5,4)#30 + z(5,5)#31 + x(5,8)#71 - t(5,8,4)#270 <= 1
 c255: z(5,5)#31 + x(5,8)#71 - t(5,8,5)#271 <= 1
 c256: - 2 x(1,1)#32 + t(1,1,1)#72 + t(1,1,2)#73 + t(1,1,3)#74 + t(1,1,4)#75
       + t(1,1,5)#76  = 0
 c257: - 2 x(1,2)#33 + t(1,2,1)#77 + t(1,2,2)#78 + t(1,2,3)#79 + t(1,2,4)#80
       + t(1,2,5)#81  = 0
 c258: - 2 x(1,3)#34 + t(1,3,1)#82 + t(1,3,2)#83 + t(1,3,3)#84 + t(1,3,4)#85
       + t(1,3,5)#86  = 0
 c259: - 2 x(1,4)#35 + t(1,4,1)#87 + t(1,4,2)#88 + t(1,4,3)#89 + t(1,4,4)#90
       + t(1,4,5)#91  = 0
 c260: - 2 x(1,5)#36 + t(1,5,1)#92 + t(1,5,2)#93 + t(1,5,3)#94 + t(1,5,4)#95
       + t(1,5,5)#96  = 0
 c261: - 2 x(1,6)#37 + t(1,6,1)#97 + t(1,6,2)#98 + t(1,6,3)#99 + t(1,6,4)#100
       + t(1,6,5)#101  = 0
 c262: - 2 x(1,7)#38 + t(1,7,1)#102 + t(1,7,2)#103 + t(1,7,3)#104
       + t(1,7,4)#105 + t(1,7,5)#106  = 0
 c263: - 2 x(1,8)#39 + t(1,8,1)#107 + t(1,8,2)#108 + t(1,8,3)#109
       + t(1,8,4)#110 + t(1,8,5)#111  = 0
 c264: - x(2,1)#40 + t(2,1,1)#112 + t(2,1,2)#113 + t(2,1,3)#114 + t(2,1,4)#115
       + t(2,1,5)#116  = 0
 c265: - x(2,2)#41 + t(2,2,1)#117 + t(2,2,2)#118 + t(2,2,3)#119 + t(2,2,4)#120
       + t(2,2,5)#121  = 0
 c266: - x(2,3)#42 + t(2,3,1)#122 + t(2,3,2)#123 + t(2,3,3)#124 + t(2,3,4)#125
       + t(2,3,5)#126  = 0
 c267: - x(2,4)#43 + t(2,4,1)#127 + t(2,4,2)#128 + t(2,4,3)#129 + t(2,4,4)#130
       + t(2,4,5)#131  = 0
 c268: - x(2,5)#44 + t(2,5,1)#132 + t(2,5,2)#133 + t(2,5,3)#134 + t(2,5,4)#135
       + t(2,5,5)#136  = 0
 c269: - x(2,6)#45 + t(2,6,1)#137 + t(2,6,2)#138 + t(2,6,3)#139 + t(2,6,4)#140
       + t(2,6,5)#141  = 0
 c270: - x(2,7)#46 + t(2,7,1)#142 + t(2,7,2)#143 + t(2,7,3)#144 + t(2,7,4)#145
       + t(2,7,5)#146  = 0
 c271: - x(2,8)#47 + t(2,8,1)#147 + t(2,8,2)#148 + t(2,8,3)#149 + t(2,8,4)#150
       + t(2,8,5)#151  = 0
 c272: - 2 x(3,1)#48 + t(3,1,1)#152 + t(3,1,2)#153 + t(3,1,3)#154
       + t(3,1,4)#155 + t(3,1,5)#156  = 0
 c273: - 2 x(3,2)#49 + t(3,2,1)#157 + t(3,2,2)#158 + t(3,2,3)#159
       + t(3,2,4)#160 + t(3,2,5)#161  = 0
 c274: - 2 x(3,3)#50 + t(3,3,1)#162 + t(3,3,2)#163 + t(3,3,3)#164
       + t(3,3,4)#165 + t(3,3,5)#166  = 0
 c275: - 2 x(3,4)#51 + t(3,4,1)#167 + t(3,4,2)#168 + t(3,4,3)#169
       + t(3,4,4)#170 + t(3,4,5)#171  = 0
 c276: - 2 x(3,5)#52 + t(3,5,1)#172 + t(3,5,2)#173 + t(3,5,3)#174
       + t(3,5,4)#175 + t(3,5,5)#176  = 0
 c277: - 2 x(3,6)#53 + t(3,6,1)#177 + t(3,6,2)#178 + t(3,6,3)#179
       + t(3,6,4)#180 + t(3,6,5)#181  = 0
 c278: - 2 x(3,7)#54 + t(3,7,1)#182 + t(3,7,2)#183 + t(3,7,3)#184
       + t(3,7,4)#185 + t(3,7,5)#186  = 0
 c279: - 2 x(3,8)#55 + t(3,8,1)#187 + t(3,8,2)#188 + t(3,8,3)#189
       + t(3,8,4)#190 + t(3,8,5)#191  = 0
 c280: - x(4,1)#56 + t(4,1,1)#192 + t(4,1,2)#193 + t(4,1,3)#194 + t(4,1,4)#195
       + t(4,1,5)#196  = 0
 c281: - x(4,2)#57 + t(4,2,1)#197 + t(4,2,2)#198 + t(4,2,3)#199 + t(4,2,4)#200
       + t(4,2,5)#201  = 0
 c282: - x(4,3)#58 + t(4,3,1)#202 + t(4,3,2)#203 + t(4,3,3)#204 + t(4,3,4)#205
       + t(4,3,5)#206  = 0
 c283: - x(4,4)#59 + t(4,4,1)#207 + t(4,4,2)#208 + t(4,4,3)#209 + t(4,4,4)#210
       + t(4,4,5)#211  = 0
 c284: - x(4,5)#60 + t(4,5,1)#212 + t(4,5,2)#213 + t(4,5,3)#214 + t(4,5,4)#215
       + t(4,5,5)#216  = 0
 c285: - x(4,6)#61 + t(4,6,1)#217 + t(4,6,2)#218 + t(4,6,3)#219 + t(4,6,4)#220
       + t(4,6,5)#221  = 0
 c286: - x(4,7)#62 + t(4,7,1)#222 + t(4,7,2)#223 + t(4,7,3)#224 + t(4,7,4)#225
       + t(4,7,5)#226  = 0
 c287: - x(4,8)#63 + t(4,8,1)#227 + t(4,8,2)#228 + t(4,8,3)#229 + t(4,8,4)#230
       + t(4,8,5)#231  = 0
 c288: - 3 x(5,1)#64 + t(5,1,1)#232 + t(5,1,2)#233 + t(5,1,3)#234
       + t(5,1,4)#235 + t(5,1,5)#236  = 0
 c289: - 3 x(5,2)#65 + t(5,2,1)#237 + t(5,2,2)#238 + t(5,2,3)#239
       + t(5,2,4)#240 + t(5,2,5)#241  = 0
 c290: - 3 x(5,3)#66 + t(5,3,1)#242 + t(5,3,2)#243 + t(5,3,3)#244
       + t(5,3,4)#245 + t(5,3,5)#246  = 0
 c291: - 3 x(5,4)#67 + t(5,4,1)#247 + t(5,4,2)#248 + t(5,4,3)#249
       + t(5,4,4)#250 + t(5,4,5)#251  = 0
 c292: - 3 x(5,5)#68 + t(5,5,1)#252 + t(5,5,2)#253 + t(5,5,3)#254
       + t(5,5,4)#255 + t(5,5,5)#256  = 0
 c293: - 3 x(5,6)#69 + t(5,6,1)#257 + t(5,6,2)#258 + t(5,6,3)#259
       + t(5,6,4)#260 + t(5,6,5)#261  = 0
 c294: - 3 x(5,7)#70 + t(5,7,1)#262 + t(5,7,2)#263 + t(5,7,3)#264
       + t(5,7,4)#265 + t(5,7,5)#266  = 0
 c295: - 3 x(5,8)#71 + t(5,8,1)#267 + t(5,8,2)#268 + t(5,8,3)#269
       + t(5,8,4)#270 + t(5,8,5)#271  = 0
 c296: t(1,1,1)#72 + t(2,1,1)#112 + t(3,1,1)#152 + t(4,1,1)#192 + t(5,1,1)#232
       <= 1
 c297: t(1,1,2)#73 + t(2,1,2)#113 + t(3,1,2)#153 + t(4,1,2)#193 + t(5,1,2)#233
       <= 1
 c298: t(1,1,3)#74 + t(2,1,3)#114 + t(3,1,3)#154 + t(4,1,3)#194 + t(5,1,3)#234
       <= 1
 c299: t(1,1,4)#75 + t(2,1,4)#115 + t(3,1,4)#155 + t(4,1,4)#195 + t(5,1,4)#235
       <= 1
 c300: t(1,1,5)#76 + t(2,1,5)#116 + t(3,1,5)#156 + t(4,1,5)#196 + t(5,1,5)#236
       <= 1
 c301: t(1,2,1)#77 + t(2,2,1)#117 + t(3,2,1)#157 + t(4,2,1)#197 + t(5,2,1)#237
       <= 1
 c302: t(1,2,2)#78 + t(2,2,2)#118 + t(3,2,2)#158 + t(4,2,2)#198 + t(5,2,2)#238
       <= 1
 c303: t(1,2,3)#79 + t(2,2,3)#119 + t(3,2,3)#159 + t(4,2,3)#199 + t(5,2,3)#239
       <= 1
 c304: t(1,2,4)#80 + t(2,2,4)#120 + t(3,2,4)#160 + t(4,2,4)#200 + t(5,2,4)#240
       <= 1
 c305: t(1,2,5)#81 + t(2,2,5)#121 + t(3,2,5)#161 + t(4,2,5)#201 + t(5,2,5)#241
       <= 1
 c306: t(1,3,1)#82 + t(2,3,1)#122 + t(3,3,1)#162 + t(4,3,1)#202 + t(5,3,1)#242
       <= 1
 c307: t(1,3,2)#83 + t(2,3,2)#123 + t(3,3,2)#163 + t(4,3,2)#203 + t(5,3,2)#243
       <= 1
 c308: t(1,3,3)#84 + t(2,3,3)#124 + t(3,3,3)#164 + t(4,3,3)#204 + t(5,3,3)#244
       <= 1
 c309: t(1,3,4)#85 + t(2,3,4)#125 + t(3,3,4)#165 + t(4,3,4)#205 + t(5,3,4)#245
       <= 1
 c310: t(1,3,5)#86 + t(2,3,5)#126 + t(3,3,5)#166 + t(4,3,5)#206 + t(5,3,5)#246
       <= 1
 c311: t(1,4,1)#87 + t(2,4,1)#127 + t(3,4,1)#167 + t(4,4,1)#207 + t(5,4,1)#247
       <= 1
 c312: t(1,4,2)#88 + t(2,4,2)#128 + t(3,4,2)#168 + t(4,4,2)#208 + t(5,4,2)#248
       <= 1
 c313: t(1,4,3)#89 + t(2,4,3)#129 + t(3,4,3)#169 + t(4,4,3)#209 + t(5,4,3)#249
       <= 1
 c314: t(1,4,4)#90 + t(2,4,4)#130 + t(3,4,4)#170 + t(4,4,4)#210 + t(5,4,4)#250
       <= 1
 c315: t(1,4,5)#91 + t(2,4,5)#131 + t(3,4,5)#171 + t(4,4,5)#211 + t(5,4,5)#251
       <= 1
 c316: t(1,5,1)#92 + t(2,5,1)#132 + t(3,5,1)#172 + t(4,5,1)#212 + t(5,5,1)#252
       <= 1
 c317: t(1,5,2)#93 + t(2,5,2)#133 + t(3,5,2)#173 + t(4,5,2)#213 + t(5,5,2)#253
       <= 1
 c318: t(1,5,3)#94 + t(2,5,3)#134 + t(3,5,3)#174 + t(4,5,3)#214 + t(5,5,3)#254
       <= 1
 c319: t(1,5,4)#95 + t(2,5,4)#135 + t(3,5,4)#175 + t(4,5,4)#215 + t(5,5,4)#255
       <= 1
 c320: t(1,5,5)#96 + t(2,5,5)#136 + t(3,5,5)#176 + t(4,5,5)#216 + t(5,5,5)#256
       <= 1
 c321: t(1,6,1)#97 + t(2,6,1)#137 + t(3,6,1)#177 + t(4,6,1)#217 + t(5,6,1)#257
       <= 1
 c322: t(1,6,2)#98 + t(2,6,2)#138 + t(3,6,2)#178 + t(4,6,2)#218 + t(5,6,2)#258
       <= 1
 c323: t(1,6,3)#99 + t(2,6,3)#139 + t(3,6,3)#179 + t(4,6,3)#219 + t(5,6,3)#259
       <= 1
 c324: t(1,6,4)#100 + t(2,6,4)#140 + t(3,6,4)#180 + t(4,6,4)#220 + t(5,6,4)#260
       <= 1
 c325: t(1,6,5)#101 + t(2,6,5)#141 + t(3,6,5)#181 + t(4,6,5)#221 + t(5,6,5)#261
       <= 1
 c326: t(1,7,1)#102 + t(2,7,1)#142 + t(3,7,1)#182 + t(4,7,1)#222 + t(5,7,1)#262
       <= 1
 c327: t(1,7,2)#103 + t(2,7,2)#143 + t(3,7,2)#183 + t(4,7,2)#223 + t(5,7,2)#263
       <= 1
 c328: t(1,7,3)#104 + t(2,7,3)#144 + t(3,7,3)#184 + t(4,7,3)#224 + t(5,7,3)#264
       <= 1
 c329: t(1,7,4)#105 + t(2,7,4)#145 + t(3,7,4)#185 + t(4,7,4)#225 + t(5,7,4)#265
       <= 1
 c330: t(1,7,5)#106 + t(2,7,5)#146 + t(3,7,5)#186 + t(4,7,5)#226 + t(5,7,5)#266
       <= 1
 c331: t(1,8,1)#107 + t(2,8,1)#147 + t(3,8,1)#187 + t(4,8,1)#227 + t(5,8,1)#267
       <= 1
 c332: t(1,8,2)#108 + t(2,8,2)#148 + t(3,8,2)#188 + t(4,8,2)#228 + t(5,8,2)#268
       <= 1
 c333: t(1,8,3)#109 + t(2,8,3)#149 + t(3,8,3)#189 + t(4,8,3)#229 + t(5,8,3)#269
       <= 1
 c334: t(1,8,4)#110 + t(2,8,4)#150 + t(3,8,4)#190 + t(4,8,4)#230 + t(5,8,4)#270
       <= 1
 c335: t(1,8,5)#111 + t(2,8,5)#151 + t(3,8,5)#191 + t(4,8,5)#231 + t(5,8,5)#271
       <= 1
 c336: z(1,1)#7  = 0
 c337:  = 0
 c338: z(3,1)#17  = 0
 c339:  = 0
 c340: z(5,1)#27 + z(5,2)#28  = 0
 c341: x(1,2)#33 + x(1,4)#35 + x(1,6)#37 + x(1,8)#39 + x(2,1)#40 + x(2,3)#42
       + x(2,4)#43 + x(3,3)#50 + x(3,5)#52 + x(4,1)#56 + x(4,2)#57 + x(4,8)#63
       + x(5,7)#70 <= 12
 c342: - z(1,1)#7 - 2 z(1,2)#8 - 3 z(1,3)#9 - 4 z(1,4)#10 - 5 z(1,5)#11
       + xI#272 >= 0
 c343: - z(2,1)#12 - 2 z(2,2)#13 - 3 z(2,3)#14 - 4 z(2,4)#15 - 5 z(2,5)#16
       + xI#272 >= 0
 c344: - z(3,1)#17 - 2 z(3,2)#18 - 3 z(3,3)#19 - 4 z(3,4)#20 - 5 z(3,5)#21
       + xI#272 >= 0
 c345: - z(4,1)#22 - 2 z(4,2)#23 - 3 z(4,3)#24 - 4 z(4,4)#25 - 5 z(4,5)#26
       + xI#272 >= 0
 c346: - z(5,1)#27 - 2 z(5,2)#28 - 3 z(5,3)#29 - 4 z(5,4)#30 - 5 z(5,5)#31
       + xI#272 >= 0
 c347: xI#272 >= 3
Bounds
 0 <= y(1,1)#0 <= 1
 0 <= y(1,2)#1 <= 1
 0 <= y(2,1)#2 <= 1
 0 <= y(3,1)#3 <= 1
 0 <= y(3,2)#4 <= 1
 0 <= y(4,1)#5 <= 1
 0 <= y(5,1)#6 <= 1
 0 <= z(1,1)#7 <= 1
 0 <= z(1,2)#8 <= 1
 0 <= z(1,3)#9 <= 1
 0 <= z(1,4)#10 <= 1
 0 <= z(1,5)#11 <= 1
 0 <= z(2,1)#12 <= 1
 0 <= z(2,2)#13 <= 1
 0 <= z(2,3)#14 <= 1
 0 <= z(2,4)#15 <= 1
 0 <= z(2,5)#16 <= 1
 0 <= z(3,1)#17 <= 1
 0 <= z(3,2)#18 <= 1
 0 <= z(3,3)#19 <= 1
 0 <= z(3,4)#20 <= 1
 0 <= z(3,5)#21 <= 1
 0 <= z(4,1)#22 <= 1
 0 <= z(4,2)#23 <= 1
 0 <= z(4,3)#24 <= 1
 0 <= z(4,4)#25 <= 1
 0 <= z(4,5)#26 <= 1
 0 <= z(5,1)#27 <= 1
 0 <= z(5,2)#28 <= 1
 0 <= z(5,3)#29 <= 1
 0 <= z(5,4)#30 <= 1
 0 <= z(5,5)#31 <= 1
 0 <= x(1,1)#32 <= 1
 0 <= x(1,2)#33 <= 1
 0 <= x(1,3)#34 <= 1
 0 <= x(1,4)#35 <= 1
 0 <= x(1,5)#36 <= 1
 0 <= x(1,6)#37 <= 1
 0 <= x(1,7)#38 <= 1
 0 <= x(1,8)#39 <= 1
 0 <= x(2,1)#40 <= 1
 0 <= x(2,2)#41 <= 1
 0 <= x(2,3)#42 <= 1
 0 <= x(2,4)#43 <= 1
 0 <= x(2,5)#44 <= 1
 0 <= x(2,6)#45 <= 1
 0 <= x(2,7)#46 <= 1
 0 <= x(2,8)#47 <= 1
 0 <= x(3,1)#48 <= 1
 0 <= x(3,2)#49 <= 1
 0 <= x(3,3)#50 <= 1
 0 <= x(3,4)#51 <= 1
 0 <= x(3,5)#52 <= 1
 0 <= x(3,6)#53 <= 1
 0 <= x(3,7)#54 <= 1
 0 <= x(3,8)#55 <= 1
 0 <= x(4,1)#56 <= 1
 0 <= x(4,2)#57 <= 1
 0 <= x(4,3)#58 <= 1
 0 <= x(4,4)#59 <= 1
 0 <= x(4,5)#60 <= 1
 0 <= x(4,6)#61 <= 1
 0 <= x(4,7)#62 <= 1
 0 <= x(4,8)#63 <= 1
 0 <= x(5,1)#64 <= 1
 0 <= x(5,2)#65 <= 1
 0 <= x(5,3)#66 <= 1
 0 <= x(5,4)#67 <= 1
 0 <= x(5,5)#68 <= 1
 0 <= x(5,6)#69 <= 1
 0 <= x(5,7)#70 <= 1
 0 <= x(5,8)#71 <= 1
 0 <= t(1,1,1)#72 <= 1
 0 <= t(1,1,2)#73 <= 1
 0 <= t(1,1,3)#74 <= 1
 0 <= t(1,1,4)#75 <= 1
 0 <= t(1,1,5)#76 <= 1
 0 <= t(1,2,1)#77 <= 1
 0 <= t(1,2,2)#78 <= 1
 0 <= t(1,2,3)#79 <= 1
 0 <= t(1,2,4)#80 <= 1
 0 <= t(1,2,5)#81 <= 1
 0 <= t(1,3,1)#82 <= 1
 0 <= t(1,3,2)#83 <= 1
 0 <= t(1,3,3)#84 <= 1
 0 <= t(1,3,4)#85 <= 1
 0 <= t(1,3,5)#86 <= 1
 0 <= t(1,4,1)#87 <= 1
 0 <= t(1,4,2)#88 <= 1
 0 <= t(1,4,3)#89 <= 1
 0 <= t(1,4,4)#90 <= 1
 0 <= t(1,4,5)#91 <= 1
 0 <= t(1,5,1)#92 <= 1
 0 <= t(1,5,2)#93 <= 1
 0 <= t(1,5,3)#94 <= 1
 0 <= t(1,5,4)#95 <= 1
 0 <= t(1,5,5)#96 <= 1
 0 <= t(1,6,1)#97 <= 1
 0 <= t(1,6,2)#98 <= 1
 0 <= t(1,6,3)#99 <= 1
 0 <= t(1,6,4)#100 <= 1
 0 <= t(1,6,5)#101 <= 1
 0 <= t(1,7,1)#102 <= 1
 0 <= t(1,7,2)#103 <= 1
 0 <= t(1,7,3)#104 <= 1
 0 <= t(1,7,4)#105 <= 1
 0 <= t(1,7,5)#106 <= 1
 0 <= t(1,8,1)#107 <= 1
 0 <= t(1,8,2)#108 <= 1
 0 <= t(1,8,3)#109 <= 1
 0 <= t(1,8,4)#110 <= 1
 0 <= t(1,8,5)#111 <= 1
 0 <= t(2,1,1)#112 <= 1
 0 <= t(2,1,2)#113 <= 1
 0 <= t(2,1,3)#114 <= 1
 0 <= t(2,1,4)#115 <= 1
 0 <= t(2,1,5)#116 <= 1
 0 <= t(2,2,1)#117 <= 1
 0 <= t(2,2,2)#118 <= 1
 0 <= t(2,2,3)#119 <= 1
 0 <= t(2,2,4)#120 <= 1
 0 <= t(2,2,5)#121 <= 1
 0 <= t(2,3,1)#122 <= 1
 0 <= t(2,3,2)#123 <= 1
 0 <= t(2,3,3)#124 <= 1
 0 <= t(2,3,4)#125 <= 1
 0 <= t(2,3,5)#126 <= 1
 0 <= t(2,4,1)#127 <= 1
 0 <= t(2,4,2)#128 <= 1
 0 <= t(2,4,3)#129 <= 1
 0 <= t(2,4,4)#130 <= 1
 0 <= t(2,4,5)#131 <= 1
 0 <= t(2,5,1)#132 <= 1
 0 <= t(2,5,2)#133 <= 1
 0 <= t(2,5,3)#134 <= 1
 0 <= t(2,5,4)#135 <= 1
 0 <= t(2,5,5)#136 <= 1
 0 <= t(2,6,1)#137 <= 1
 0 <= t(2,6,2)#138 <= 1
 0 <= t(2,6,3)#139 <= 1
 0 <= t(2,6,4)#140 <= 1
 0 <= t(2,6,5)#141 <= 1
 0 <= t(2,7,1)#142 <= 1
 0 <= t(2,7,2)#143 <= 1
 0 <= t(2,7,3)#144 <= 1
 0 <= t(2,7,4)#145 <= 1
 0 <= t(2,7,5)#146 <= 1
 0 <= t(2,8,1)#147 <= 1
 0 <= t(2,8,2)#148 <= 1
 0 <= t(2,8,3)#149 <= 1
 0 <= t(2,8,4)#150 <= 1
 0 <= t(2,8,5)#151 <= 1
 0 <= t(3,1,1)#152 <= 1
 0 <= t(3,1,2)#153 <= 1
 0 <= t(3,1,3)#154 <= 1
 0 <= t(3,1,4)#155 <= 1
 0 <= t(3,1,5)#156 <= 1
 0 <= t(3,2,1)#157 <= 1
 0 <= t(3,2,2)#158 <= 1
 0 <= t(3,2,3)#159 <= 1
 0 <= t(3,2,4)#160 <= 1
 0 <= t(3,2,5)#161 <= 1
 0 <= t(3,3,1)#162 <= 1
 0 <= t(3,3,2)#163 <= 1
 0 <= t(3,3,3)#164 <= 1
 0 <= t(3,3,4)#165 <= 1
 0 <= t(3,3,5)#166 <= 1
 0 <= t(3,4,1)#167 <= 1
 0 <= t(3,4,2)#168 <= 1
 0 <= t(3,4,3)#169 <= 1
 0 <= t(3,4,4)#170 <= 1
 0 <= t(3,4,5)#171 <= 1
 0 <= t(3,5,1)#172 <= 1
 0 <= t(3,5,2)#173 <= 1
 0 <= t(3,5,3)#174 <= 1
 0 <= t(3,5,4)#175 <= 1
 0 <= t(3,5,5)#176 <= 1
 0 <= t(3,6,1)#177 <= 1
 0 <= t(3,6,2)#178 <= 1
 0 <= t(3,6,3)#179 <= 1
 0 <= t(3,6,4)#180 <= 1
 0 <= t(3,6,5)#181 <= 1
 0 <= t(3,7,1)#182 <= 1
 0 <= t(3,7,2)#183 <= 1
 0 <= t(3,7,3)#184 <= 1
 0 <= t(3,7,4)#185 <= 1
 0 <= t(3,7,5)#186 <= 1
 0 <= t(3,8,1)#187 <= 1
 0 <= t(3,8,2)#188 <= 1
 0 <= t(3,8,3)#189 <= 1
 0 <= t(3,8,4)#190 <= 1
 0 <= t(3,8,5)#191 <= 1
 0 <= t(4,1,1)#192 <= 1
 0 <= t(4,1,2)#193 <= 1
 0 <= t(4,1,3)#194 <= 1
 0 <= t(4,1,4)#195 <= 1
 0 <= t(4,1,5)#196 <= 1
 0 <= t(4,2,1)#197 <= 1
 0 <= t(4,2,2)#198 <= 1
 0 <= t(4,2,3)#199 <= 1
 0 <= t(4,2,4)#200 <= 1
 0 <= t(4,2,5)#201 <= 1
 0 <= t(4,3,1)#202 <= 1
 0 <= t(4,3,2)#203 <= 1
 0 <= t(4,3,3)#204 <= 1
 0 <= t(4,3,4)#205 <= 1
 0 <= t(4,3,5)#206 <= 1
 0 <= t(4,4,1)#207 <= 1
 0 <= t(4,4,2)#208 <= 1
 0 <= t(4,4,3)#209 <= 1
 0 <= t(4,4,4)#210 <= 1
 0 <= t(4,4,5)#211 <= 1
 0 <= t(4,5,1)#212 <= 1
 0 <= t(4,5,2)#213 <= 1
 0 <= t(4,5,3)#214 <= 1
 0 <= t(4,5,4)#215 <= 1
 0 <= t(4,5,5)#216 <= 1
 0 <= t(4,6,1)#217 <= 1
 0 <= t(4,6,2)#218 <= 1
 0 <= t(4,6,3)#219 <= 1
 0 <= t(4,6,4)#220 <= 1
 0 <= t(4,6,5)#221 <= 1
 0 <= t(4,7,1)#222 <= 1
 0 <= t(4,7,2)#223 <= 1
 0 <= t(4,7,3)#224 <= 1
 0 <= t(4,7,4)#225 <= 1
 0 <= t(4,7,5)#226 <= 1
 0 <= t(4,8,1)#227 <= 1
 0 <= t(4,8,2)#228 <= 1
 0 <= t(4,8,3)#229 <= 1
 0 <= t(4,8,4)#230 <= 1
 0 <= t(4,8,5)#231 <= 1
 0 <= t(5,1,1)#232 <= 1
 0 <= t(5,1,2)#233 <= 1
 0 <= t(5,1,3)#234 <= 1
 0 <= t(5,1,4)#235 <= 1
 0 <= t(5,1,5)#236 <= 1
 0 <= t(5,2,1)#237 <= 1
 0 <= t(5,2,2)#238 <= 1
 0 <= t(5,2,3)#239 <= 1
 0 <= t(5,2,4)#240 <= 1
 0 <= t(5,2,5)#241 <= 1
 0 <= t(5,3,1)#242 <= 1
 0 <= t(5,3,2)#243 <= 1
 0 <= t(5,3,3)#244 <= 1
 0 <= t(5,3,4)#245 <= 1
 0 <= t(5,3,5)#246 <= 1
 0 <= t(5,4,1)#247 <= 1
 0 <= t(5,4,2)#248 <= 1
 0 <= t(5,4,3)#249 <= 1
 0 <= t(5,4,4)#250 <= 1
 0 <= t(5,4,5)#251 <= 1
 0 <= t(5,5,1)#252 <= 1
 0 <= t(5,5,2)#253 <= 1
 0 <= t(5,5,3)#254 <= 1
 0 <= t(5,5,4)#255 <= 1
 0 <= t(5,5,5)#256 <= 1
 0 <= t(5,6,1)#257 <= 1
 0 <= t(5,6,2)#258 <= 1
 0 <= t(5,6,3)#259 <= 1
 0 <= t(5,6,4)#260 <= 1
 0 <= t(5,6,5)#261 <= 1
 0 <= t(5,7,1)#262 <= 1
 0 <= t(5,7,2)#263 <= 1
 0 <= t(5,7,3)#264 <= 1
 0 <= t(5,7,4)#265 <= 1
 0 <= t(5,7,5)#266 <= 1
 0 <= t(5,8,1)#267 <= 1
 0 <= t(5,8,2)#268 <= 1
 0 <= t(5,8,3)#269 <= 1
 0 <= t(5,8,4)#270 <= 1
 0 <= t(5,8,5)#271 <= 1
      xI#272 >= 0
Binaries
 y(1,1)#0  y(1,2)#1  y(2,1)#2  y(3,1)#3  y(3,2)#4  y(4,1)#5  y(5,1)#6 
 z(1,1)#7  z(1,2)#8  z(1,3)#9  z(1,4)#10  z(1,5)#11  z(2,1)#12  z(2,2)#13 
 z(2,3)#14  z(2,4)#15  z(2,5)#16  z(3,1)#17  z(3,2)#18  z(3,3)#19  z(3,4)#20 
 z(3,5)#21  z(4,1)#22  z(4,2)#23  z(4,3)#24  z(4,4)#25  z(4,5)#26  z(5,1)#27 
 z(5,2)#28  z(5,3)#29  z(5,4)#30  z(5,5)#31  x(1,1)#32  x(1,2)#33  x(1,3)#34 
 x(1,4)#35  x(1,5)#36  x(1,6)#37  x(1,7)#38  x(1,8)#39  x(2,1)#40  x(2,2)#41 
 x(2,3)#42  x(2,4)#43  x(2,5)#44  x(2,6)#45  x(2,7)#46  x(2,8)#47  x(3,1)#48 
 x(3,2)#49  x(3,3)#50  x(3,4)#51  x(3,5)#52  x(3,6)#53  x(3,7)#54  x(3,8)#55 
 x(4,1)#56  x(4,2)#57  x(4,3)#58  x(4,4)#59  x(4,5)#60  x(4,6)#61  x(4,7)#62 
 x(4,8)#63  x(5,1)#64  x(5,2)#65  x(5,3)#66  x(5,4)#67  x(5,5)#68  x(5,6)#69 
 x(5,7)#70  x(5,8)#71  t(1,1,1)#72  t(1,1,2)#73  t(1,1,3)#74  t(1,1,4)#75 
 t(1,1,5)#76  t(1,2,1)#77  t(1,2,2)#78  t(1,2,3)#79  t(1,2,4)#80  t(1,2,5)#81 
 t(1,3,1)#82  t(1,3,2)#83  t(1,3,3)#84  t(1,3,4)#85  t(1,3,5)#86  t(1,4,1)#87 
 t(1,4,2)#88  t(1,4,3)#89  t(1,4,4)#90  t(1,4,5)#91  t(1,5,1)#92  t(1,5,2)#93 
 t(1,5,3)#94  t(1,5,4)#95  t(1,5,5)#96  t(1,6,1)#97  t(1,6,2)#98  t(1,6,3)#99 
 t(1,6,4)#100  t(1,6,5)#101  t(1,7,1)#102  t(1,7,2)#103  t(1,7,3)#104 
 t(1,7,4)#105  t(1,7,5)#106  t(1,8,1)#107  t(1,8,2)#108  t(1,8,3)#109 
 t(1,8,4)#110  t(1,8,5)#111  t(2,1,1)#112  t(2,1,2)#113  t(2,1,3)#114 
 t(2,1,4)#115  t(2,1,5)#116  t(2,2,1)#117  t(2,2,2)#118  t(2,2,3)#119 
 t(2,2,4)#120  t(2,2,5)#121  t(2,3,1)#122  t(2,3,2)#123  t(2,3,3)#124 
 t(2,3,4)#125  t(2,3,5)#126  t(2,4,1)#127  t(2,4,2)#128  t(2,4,3)#129 
 t(2,4,4)#130  t(2,4,5)#131  t(2,5,1)#132  t(2,5,2)#133  t(2,5,3)#134 
 t(2,5,4)#135  t(2,5,5)#136  t(2,6,1)#137  t(2,6,2)#138  t(2,6,3)#139 
 t(2,6,4)#140  t(2,6,5)#141  t(2,7,1)#142  t(2,7,2)#143  t(2,7,3)#144 
 t(2,7,4)#145  t(2,7,5)#146  t(2,8,1)#147  t(2,8,2)#148  t(2,8,3)#149 
 t(2,8,4)#150  t(2,8,5)#151  t(3,1,1)#152  t(3,1,2)#153  t(3,1,3)#154 
 t(3,1,4)#155  t(3,1,5)#156  t(3,2,1)#157  t(3,2,2)#158  t(3,2,3)#159 
 t(3,2,4)#160  t(3,2,5)#161  t(3,3,1)#162  t(3,3,2)#163  t(3,3,3)#164 
 t(3,3,4)#165  t(3,3,5)#166  t(3,4,1)#167  t(3,4,2)#168  t(3,4,3)#169 
 t(3,4,4)#170  t(3,4,5)#171  t(3,5,1)#172  t(3,5,2)#173  t(3,5,3)#174 
 t(3,5,4)#175  t(3,5,5)#176  t(3,6,1)#177  t(3,6,2)#178  t(3,6,3)#179 
 t(3,6,4)#180  t(3,6,5)#181  t(3,7,1)#182  t(3,7,2)#183  t(3,7,3)#184 
 t(3,7,4)#185  t(3,7,5)#186  t(3,8,1)#187  t(3,8,2)#188  t(3,8,3)#189 
 t(3,8,4)#190  t(3,8,5)#191  t(4,1,1)#192  t(4,1,2)#193  t(4,1,3)#194 
 t(4,1,4)#195  t(4,1,5)#196  t(4,2,1)#197  t(4,2,2)#198  t(4,2,3)#199 
 t(4,2,4)#200  t(4,2,5)#201  t(4,3,1)#202  t(4,3,2)#203  t(4,3,3)#204 
 t(4,3,4)#205  t(4,3,5)#206  t(4,4,1)#207  t(4,4,2)#208  t(4,4,3)#209 
 t(4,4,4)#210  t(4,4,5)#211  t(4,5,1)#212  t(4,5,2)#213  t(4,5,3)#214 
 t(4,5,4)#215  t(4,5,5)#216  t(4,6,1)#217  t(4,6,2)#218  t(4,6,3)#219 
 t(4,6,4)#220  t(4,6,5)#221  t(4,7,1)#222  t(4,7,2)#223  t(4,7,3)#224 
 t(4,7,4)#225  t(4,7,5)#226  t(4,8,1)#227  t(4,8,2)#228  t(4,8,3)#229 
 t(4,8,4)#230  t(4,8,5)#231  t(5,1,1)#232  t(5,1,2)#233  t(5,1,3)#234 
 t(5,1,4)#235  t(5,1,5)#236  t(5,2,1)#237  t(5,2,2)#238  t(5,2,3)#239 
 t(5,2,4)#240  t(5,2,5)#241  t(5,3,1)#242  t(5,3,2)#243  t(5,3,3)#244 
 t(5,3,4)#245  t(5,3,5)#246  t(5,4,1)#247  t(5,4,2)#248  t(5,4,3)#249 
 t(5,4,4)#250  t(5,4,5)#251  t(5,5,1)#252  t(5,5,2)#253  t(5,5,3)#254 
 t(5,5,4)#255  t(5,5,5)#256  t(5,6,1)#257  t(5,6,2)#258  t(5,6,3)#259 
 t(5,6,4)#260  t(5,6,5)#261  t(5,7,1)#262  t(5,7,2)#263  t(5,7,3)#264 
 t(5,7,4)#265  t(5,7,5)#266  t(5,8,1)#267  t(5,8,2)#268  t(5,8,3)#269 
 t(5,8,4)#270  t(5,8,5)#271 
Generals
 xI#272 
End
